unsat
(:added-eqs                   185669
 :arith-eq-adapter            1560
 :arith-bound-propagations-lp 3552
 :arith-conflicts             102
 :arith-diseq                 4403
 :arith-fixed-eqs             5840
 :arith-lower                 9692
 :arith-make-feasible         5464
 :arith-max-columns           1036
 :arith-max-rows              492
 :arith-offset-eqs            1491
 :arith-upper                 14964
 :binary-propagations         2016675
 :conflicts                   3565
 :decisions                   292496
 :del-clause                  3599
 :elim-unconstrained          4
 :max-memory                  50.56
 :memory                      35.25
 :minimized-lits              10539
 :mk-bool-var                 16900
 :mk-clause                   11578
 :mk-clause-binary            58736
 :num-allocs                  165816487
 :num-checks                  1
 :pb-predicates               37
 :pb-propagations             117
 :propagations                2480103
 :restarts                    29
 :rlimit-count                12362645
 :time                        2.04
 :total-time                  2.20)
